NAME : LPS-n31-m45
COMMENT : (Lartu-Peter-Santi Plot, instance 11245 out of 39200. 31 customers.)
TYPE : CVRP
DIMENSION : 31
EDGE_WEIGHT_TYPE : EUC_2D
CAPACITY : 141
NODE_COORD_SECTION
 1 78 21
 2 85 6
 3 41 87
 4 6 23
 5 5 94
 6 86 88
 7 2 44
 8 90 7
 9 99 39
 10 19 86
 11 14 70
 12 81 61
 13 63 44
 14 39 30
 15 54 32
 16 4 23
 17 46 5
 18 24 10
 19 96 34
 20 20 56
 21 7 36
 22 26 36
 23 67 55
 24 48 97
 25 36 21
 26 77 27
 27 85 58
 28 56 25
 29 65 11
 30 28 61
 31 20 53
DEMAND_SECTION
1 0
2 62
3 1
4 137
5 8
6 131
7 43
8 73
9 26
10 22
11 2
12 42
13 3
14 51
15 26
16 68
17 67
18 87
19 88
20 138
21 102
22 6
23 29
24 88
25 9
26 53
27 125
28 109
29 64
30 96
31 132
DEPOT_SECTION
 1
 -1
EOF
